nNurses = 191;
nHours = 37;
minHours = 4;
maxHours = 16;
maxConsec = 13;
maxPresence = 11;
demand = [21, 23, 22, 23, 21, 18, 14, 13, 15, 17, 16, 20, 24, 29, 30, 26, 29, 29, 29, 34, 38, 37, 35, 34, 37, 32, 37, 38, 35, 32, 30, 26, 24, 24, 22, 20, 22];
